p tw 272 292
1 2
2 113
3 14
4 5
5 6
6 7
7 216
8 9
9 10
10 11
11 12
12 13
13 15
13 111
14 25
15 16
16 17
17 18
18 19
19 20
20 21
21 22
21 40
22 23
23 24
24 26
25 36
26 27
27 28
28 29
28 31
29 30
30 31
31 32
32 33
33 34
34 35
35 37
36 47
37 38
38 39
39 40
40 41
41 42
42 43
43 44
44 45
45 46
46 48
47 58
48 49
49 50
49 70
50 51
51 52
52 53
53 54
54 55
55 56
56 57
56 60
57 59
58 69
59 60
60 61
61 62
62 63
63 64
64 65
65 66
66 67
67 68
68 44
69 80
70 71
71 72
72 73
73 74
74 75
74 107
75 76
76 77
77 78
78 79
79 81
80 91
81 82
82 83
82 85
83 84
84 85
85 86
86 87
87 88
88 89
89 90
90 92
91 102
92 93
93 94
94 95
95 96
96 97
96 99
97 98
98 104
99 100
100 101
101 103
102 114
103 104
104 105
105 106
106 70
107 108
108 109
109 110
110 171
111 112
112 115
113 196
114 125
115 116
116 117
117 118
118 119
119 120
120 121
121 122
122 123
123 124
124 126
125 136
126 127
126 144
127 128
128 129
129 130
130 131
131 132
131 134
132 133
133 134
134 135
135 137
136 147
137 138
138 139
139 140
140 141
141 142
142 143
143 119
144 145
145 146
145 171
146 148
147 158
148 149
149 150
150 151
151 152
152 153
153 154
154 155
155 156
156 157
157 159
158 169
159 160
159 162
160 161
161 162
162 163
163 164
164 165
165 166
166 167
167 168
168 170
169 180
170 171
171 172
172 173
173 174
174 175
175 176
176 177
177 178
178 179
178 182
179 181
180 191
181 182
182 183
183 184
184 185
185 186
186 187
187 188
188 189
189 190
190 192
191 194
191 8
192 193
194 195
195 197
196 207
196 251
197 198
198 199
199 200
199 202
200 201
201 206
202 203
203 204
204 205
205 206
206 208
207 218
208 209
209 210
209 213
210 211
211 212
212 213
213 214
214 215
215 216
216 217
217 219
218 229
219 220
220 221
221 222
222 223
223 224
224 225
224 8
225 226
226 227
227 228
228 230
229 240
230 231
231 232
232 233
233 234
234 235
235 236
236 237
237 238
238 239
239 241
240 91
241 242
241 244
242 243
243 244
244 245
245 246
246 247
247 248
248 249
249 250
250 252
251 262
252 253
253 254
254 255
255 256
255 258
256 257
257 271
258 259
259 260
259 263
260 261
261 268
262 3
263 264
264 265
265 266
266 267
267 268
268 269
269 270
270 271
271 272
272 4
